          23
          70
           1          22          21
           2          13          31
           3          35           9
           4          35           9
           5          35           9
           6          24           9
           7          24           9
           8          24           9
           9           7          30
          10           7          30
          11          13          11
          12          13          11
          13          13          11
          14          14          10
          15           8          14
          16           8          14
          17           8          14
          18           8          12
          19           8          12
          20           8          12
          21           7          13
          22           7          13
          23           7          13
